 heter
   1.000
   -9.8708944320925198    0.0000000000000000    0.0000000000000000
   -0.0000000000000098   -4.2742226681332403    0.0000000000000000
    0.0000000000000000    0.0000000000000000   15.0000000000000000
   C 
   16
Direct
    0.6250000000000000    0.8333333333333334    0.5000000000000001     C1
    0.7499999999999999    0.3333333333333334    0.5000000000000001     C2
    0.8750000000000000    0.8333333333333334    0.5000000000000001     C3
    0.9999999999999999    0.3333333333333334    0.5000000000000001     C4
    0.1250000000000000    0.8333333333333333    0.5000000000000001     C5
    0.3749999999999999    0.8333333333333334    0.5000000000000001     C6
    0.4999999999999999    0.3333333333333334    0.5000000000000001     C7
    0.2500000000000000    0.3333333333333334    0.5000000000000001     C8
    0.7500000000000000    0.6666666666666666    0.5000000000000001     C9
    0.8750000000000001    0.1666666666666666    0.5000000000000001    C10
   -0.0000000000000000    0.6666666666666666    0.5000000000000001    C11
    0.1250000000000000    0.1666666666666666    0.5000000000000001    C12
    0.2500000000000000    0.6666666666666665    0.5000000000000001    C13
    0.5000000000000000    0.6666666666666666    0.5000000000000001    C14
    0.6250000000000001    0.1666666666666666    0.5000000000000001    C15
    0.3750000000000000    0.1666666666666666    0.5000000000000001    C16
