 heter
   1.000
   -1.6635346412571401   -2.8813265188082400    0.0000000000000000
   -1.6635346412571499    2.8813265188082400    0.0000000000000000
    0.0000000000000000    0.0000000000000000  -15.0689506530999999
   Se   W 
    2    1
Direct
    0.6666666666666667    0.3333333333333334    0.1384310129999999    Se1
    0.6666666666666667    0.3333333333333335    0.3615689870000001    Se2
    0.3333333333333332    0.6666666666666667    0.2500000000000000     W1
