 heter
   1.000
   -9.5709471702923992    5.5257889251680004    0.0000000000000000
   -6.3806314468369596    0.0000000000000000    0.0000000000000000
    0.0000000000000000    0.0000000000000000   18.0123004912999995
   Mo   S 
    4    8
Direct
    0.3333350120000000    0.9999949640000000    0.0836199970000000    Mo1
    0.8333350120000000    0.9999949639999999    0.0836199970000000    Mo2
    0.3333350120000000    0.4999949639999999    0.0836199970000000    Mo3
    0.8333350120000000    0.4999949639999999    0.0836199970000000    Mo4
    0.1666650025000000    0.5000049925000001    0.0000000000000000     S1
    0.6666650025000002    0.5000049925000002    0.0000000000000000     S2
    0.1666650025000000    0.0000049925000001    0.0000000000000000     S3
    0.6666650025000002    0.0000049925000000    0.0000000000000000     S4
    0.1666650025000000    0.5000049925000001    0.1672299950000000     S5
    0.6666650025000002    0.5000049925000002    0.1672299950000000     S6
    0.1666650025000000    0.0000049925000001    0.1672299950000000     S7
    0.6666650025000002    0.0000049925000000    0.1672299950000000     S8
